 vasp.5.4.1 05Feb16 (build Jul 05 2020 17:13:04) complex

 executed on           IFC91_ompi date 2024.04.25  00:00:41

 INCAR:
 POTCAR:   PAW_PBE V 08Apr2002
 POTCAR:   PAW_PBE Mo 08Apr2002
 POTCAR:   PAW_PBE W 08Apr2002
 POTCAR:    PAW_PBE S 17Jan2003

 POTCAR:   PAW_PBE V 08Apr2002
   VRHFIN =V: p6 d4 s1

   TITEL  = PAW_PBE V 08Apr2002
   POMASS =   50.941; ZVAL   =    5.000    mass and valenz
   ENMAX  =  192.543; ENMIN  =  144.408 eV
   QCUT   =   -3.762; QGAM   =    7.524    optimization parameters

   Description
     l     E      TYP  RCUT    TYP  RCUT
     2   .000     23  2.700
     2   .000     23  2.700
     0   .000     23  2.700
     0  2.000     23  2.700
     1   .000     23  2.700
     1  2.000     23  2.700
     3   .000      7   .000

 POTCAR:   PAW_PBE Mo 08Apr2002
   VRHFIN =Mo: 4p5s4d

[...]

 POTCAR:   PAW_PBE W 08Apr2002
   VRHFIN =W : 6s5d

   TITEL  = PAW_PBE W 08Apr2002
   POMASS =  183.850; ZVAL   =    6.000    mass and valenz
   ENMAX  =  223.057; ENMIN  =  167.293 eV
   QCUT   =   -4.049; QGAM   =    8.098    optimization parameters

[...]

 POTCAR:    PAW_PBE S 17Jan2003
   VRHFIN =S : s2p4

   TITEL  = PAW_PBE S 17Jan2003
   POMASS =   32.066; ZVAL   =    6.000    mass and valenz
   ENMAX  =  280.000; ENMIN  =  194.016 eV
   QCUT   =   -4.360; QGAM   =    8.721    optimization parameters

   Description
     l     E      TYP  RCUT    TYP  RCUT
     0   .000     23  1.900
     0   .000     23  1.900
     1   .000     23  1.900
     1   .000     23  1.900
     2   .000     23  1.900

 PAW_PBE V 08Apr2002                    :
 PAW_PBE Mo 08Apr2002                   :
 PAW_PBE W 08Apr2002                    :
  PAW_PBE S 17Jan2003                   :

 POSCAR: crystal structure from VMoWS2 with Hexag
  positions in cartesian coordinates
 exchange correlation table for  LEXCH =        8
   RHO(1)=    0.500       N(1)  =     2000
   RHO(2)=  100.500       N(2)  =     4000

 ion  position               nearest neighbor table
   1  0.667  0.667  0.000-  21 2.34  24 2.34  27 2.36  26 2.36  19 2.36  18 2.36
   2  0.333  0.667  0.000-  15 2.34  18 2.34  20 2.36  21 2.36  13 2.36  12 2.36
   3  0.667  0.333  0.000-  19 2.34  22 2.34  25 2.36  24 2.36  17 2.36  16 2.36
   4  0.000  0.000  0.000-  23 2.34  14 2.34  11 2.36  10 2.36  27 2.36  26 2.36   9 3.34   5 3.34
                             6 3.34   7 3.34   8 3.36
   5  0.000  0.667  0.000-  27 2.34  12 2.34  14 2.36  15 2.36  24 2.36  25 2.36   4 3.34   6 3.34
                             7 3.36
   6  1.000  0.333  0.000-  25 2.34  10 2.34  13 2.36  12 2.36  22 2.36  23 2.36   5 3.34   4 3.34
                             8 3.34   9 3.36
   7  0.333  0.000  0.000-  11 2.34  20 2.34  17 2.36  16 2.36  15 2.36  14 2.36   8 3.34   9 3.34
                             4 3.34   5 3.36
   8  0.333  0.333  0.000-  13 2.34  16 2.34  19 2.36  18 2.36  11 2.36  10 2.36   7 3.34   6 3.34
                             4 3.36
   9  0.667  0.000  0.000-  17 2.34  26 2.34  23 2.36  22 2.36  21 2.36  20 2.36   4 3.34   7 3.34
                             6 3.36
  10  0.111  0.222  0.955-   6 2.34   4 2.36   8 2.36
  11  0.222  0.111  0.045-   7 2.34   4 2.36   8 2.36
  12  0.111  0.556  0.955-   5 2.34   6 2.36   2 2.36
  13  0.222  0.444  0.045-   8 2.34   6 2.36   2 2.36
  14  0.111  0.889  0.955-   4 2.34   5 2.36   7 2.36
  15  0.222  0.777  0.045-   2 2.34   5 2.36   7 2.36
  16  0.444  0.222  0.955-   8 2.34   7 2.36   3 2.36
  17  0.556  0.111  0.045-   9 2.34   7 2.36   3 2.36
  18  0.444  0.556  0.955-   2 2.34   8 2.36   1 2.36
  19  0.556  0.444  0.045-   3 2.34   8 2.36   1 2.36
  20  0.444  0.889  0.955-   7 2.34   2 2.36   9 2.36
  21  0.556  0.777  0.045-   1 2.34   2 2.36   9 2.36
  22  0.777  0.222  0.955-   3 2.34   9 2.36   6 2.36
  23  0.889  0.111  0.045-   4 2.34   9 2.36   6 2.36
  24  0.777  0.556  0.955-   1 2.34   3 2.36   5 2.36
  25  0.889  0.444  0.045-   6 2.34   3 2.36   5 2.36
  26  0.777  0.889  0.955-   9 2.34   1 2.36   4 2.36
  27  0.889  0.777  0.045-   5 2.34   1 2.36   4 2.36

IMPORTANT INFORMATION: All symmetrisations will be switched off!
NOSYMM: (Re-)initialisation of all symmetry stuff for point group C_1.

 KPOINTS: K-POINTS 	#supercell of CrS2 in hexagona

Automatic generation of k-mesh.
Space group operators:
 irot       det(A)        alpha          n_x          n_y          n_z        tau_x        tau_y        tau_z
    1     1.000000     0.000000     1.000000     0.000000     0.000000     0.000000     0.000000     0.000000

 Subroutine IBZKPT returns following result:

 Found     34 irreducible k-points:

 Following reciprocal coordinates:
            Coordinates               Weight
  0.000000  0.000000  0.000000      1.000000
  0.125000  0.000000  0.000000      2.000000
  0.250000  0.000000  0.000000      2.000000
  0.375000  0.000000  0.000000      2.000000
  0.500000  0.000000  0.000000      1.000000
  0.000000  0.125000  0.000000      2.000000
  0.125000  0.125000  0.000000      2.000000
  0.250000  0.125000  0.000000      2.000000
  0.375000  0.125000  0.000000      2.000000
  0.500000  0.125000  0.000000      2.000000
 -0.375000  0.125000  0.000000      2.000000
 -0.250000  0.125000  0.000000      2.000000
 -0.125000  0.125000  0.000000      2.000000
  0.000000  0.250000  0.000000      2.000000
  0.125000  0.250000  0.000000      2.000000
  0.250000  0.250000  0.000000      2.000000
  0.375000  0.250000  0.000000      2.000000
  0.500000  0.250000  0.000000      2.000000
 -0.375000  0.250000  0.000000      2.000000
 -0.250000  0.250000  0.000000      2.000000
 -0.125000  0.250000  0.000000      2.000000
 -0.000000  0.375000  0.000000      2.000000
  0.125000  0.375000  0.000000      2.000000
  0.250000  0.375000  0.000000      2.000000
  0.375000  0.375000  0.000000      2.000000
  0.500000  0.375000  0.000000      2.000000
 -0.375000  0.375000  0.000000      2.000000
 -0.250000  0.375000  0.000000      2.000000
 -0.125000  0.375000  0.000000      2.000000
  0.000000  0.500000  0.000000      1.000000
  0.125000  0.500000  0.000000      2.000000
  0.250000  0.500000  0.000000      2.000000
  0.375000  0.500000  0.000000      2.000000
  0.500000  0.500000  0.000000      1.000000

 Following cartesian coordinates:
            Coordinates               Weight
  0.000000  0.000000  0.000000      1.000000
  0.007209  0.012401  0.000000      2.000000
  0.014418  0.024802  0.000000      2.000000
  0.021626  0.037202  0.000000      2.000000
  0.028835  0.049603  0.000000      1.000000
 -0.007209  0.012401  0.000000      2.000000
  0.000000  0.024802  0.000000      2.000000
  0.007209  0.037202  0.000000      2.000000
  0.014418  0.049603  0.000000      2.000000
  0.021626  0.062004  0.000000      2.000000
 -0.028835 -0.024802  0.000000      2.000000
 -0.021626 -0.012401  0.000000      2.000000
 -0.014418  0.000000  0.000000      2.000000
 -0.014418  0.024802  0.000000      2.000000
 -0.007209  0.037202  0.000000      2.000000
  0.000000  0.049603  0.000000      2.000000
  0.007209  0.062004  0.000000      2.000000
  0.014418  0.074405  0.000000      2.000000
 -0.036044 -0.012401  0.000000      2.000000
 -0.028835  0.000000  0.000000      2.000000
 -0.021626  0.012401  0.000000      2.000000
 -0.021626  0.037202  0.000000      2.000000
 -0.014418  0.049603  0.000000      2.000000
 -0.007209  0.062004  0.000000      2.000000
  0.000000  0.074405  0.000000      2.000000
  0.007209  0.086806  0.000000      2.000000
 -0.043253  0.000000  0.000000      2.000000
 -0.036044  0.012401  0.000000      2.000000
 -0.028835  0.024802  0.000000      2.000000
 -0.028835  0.049603  0.000000      1.000000
 -0.021626  0.062004  0.000000      2.000000
 -0.014418  0.074405  0.000000      2.000000
 -0.007209  0.086806  0.000000      2.000000
  0.000000  0.099206  0.000000      1.000000

 I would recommend the setting:
   dimension x,y,z NGX =    41 NGY =   41 NGZ =  123
 SYSTEM =  unknown system
 POSCAR =  crystal structure from VMoWS2 with Hexag

 Startparameter for this run:
   NWRITE =      2    write-flag & timer
   PREC   = normal    normal or accurate (medium, high low for compatibility)
   ISTART =      0    job   : 0-new  1-cont  2-samecut
   ICHARG =      2    charge: 1-file 2-atom 10-const
   ISPIN  =      1    spin polarized calculation?
   LNONCOLLINEAR =      F non collinear calculations
   LSORBIT =      F    spin-orbit coupling
   INIWAV =      1    electr: 0-lowe 1-rand  2-diag
   LASPH  =      F    aspherical Exc in radial PAW
   METAGGA=      F    non-selfconsistent MetaGGA calc.

 Electronic Relaxation 1
   ENCUT  =  280.0 eV  20.58 Ry    4.54 a.u.  13.68 13.68 40.93*2*pi/ulx,y,z
   ENINI  =  280.0     initial cutoff
   ENAUG  =  373.4 eV  augmentation charge cutoff
   NELM   =     60;   NELMIN=  2; NELMDL= -5     # of ELM steps
   EDIFF  = 0.1E-03   stopping-criterion for ELM
   LREAL  =      F    real-space projection
   NLSPLINE    = F    spline interpolate recip. space projectors
   LCOMPAT=      F    compatible to vasp.4.4
   GGA_COMPAT  = T    GGA compatible to vasp.4.4-vasp.4.6
   LMAXPAW     = -100 max onsite density
   LMAXMIX     =    2 max onsite mixed and CHGCAR
   VOSKOWN=      0    Vosko Wilk Nusair interpolation
   ROPT   =    0.00000   0.00000   0.00000   0.00000
 Ionic relaxation
   EDIFFG = 0.1E-02   stopping-criterion for IOM
   NSW    =    100    number of steps for IOM
   NBLOCK =      1;   KBLOCK =    100    inner block; outer block
   IBRION =      1    ionic relax: 0-MD 1-quasi-New 2-CG
   NFREE  =      0    steps in history (QN), initial steepest desc. (CG)
   ISIF   =      3    stress and relaxation
   IWAVPR =     11    prediction:  0-non 1-charg 2-wave 3-comb
   ISYM   =      0    0-nonsym 1-usesym 2-fastsym
   LCORR  =      T    Harris-Foulkes like correction to forces

   POTIM  = 0.5000    time-step for ionic-motion
   TEIN   =    0.0    initial temperature
   TEBEG  =    0.0;   TEEND  =   0.0 temperature during run
   SMASS  =  -3.00    Nose mass-parameter (am)
   estimated Nose-frequenzy (Omega)   =  0.10E-29 period in steps =****** mass=  -0.230E-26a.u.
   SCALEE = 1.0000    scale energy and forces
   NPACO  =    256;   APACO  = 16.0  distance and # of slots for P.C.
   PSTRESS=    0.0 pullay stress

  Mass of Ions in am
   POMASS =  50.94 95.94183.85 32.07
  Ionic Valenz
   ZVAL   =   5.00  6.00  6.00  6.00
  Atomic Wigner-Seitz radii
  virtual crystal weights
   VCA    =   1.00  1.00  1.00  1.00
   NELECT =     159.0000    total number of electrons
   NUPDOWN=      -1.0000    fix difference up-down

 DOS related values:
   EMIN   =  10.00;   EMAX   =-10.00  energy-range for DOS
   EFERMI =   0.00
   ISMEAR =     0;   SIGMA  =   0.20  broadening in eV -4-tet -1-fermi 0-gaus

 Electronic relaxation 2 (details)
   IALGO  =     38    algorithm
   LDIAG  =      T    sub-space diagonalisation (order eigenvalues)
   LSUBROT=      F    optimize rotation matrix (better conditioning)
   TURBO    =      0    0=normal 1=particle mesh
   IRESTART =      0    0=no restart 2=restart with 2 vectors
   NREBOOT  =      0    no. of reboots
   NMIN     =      0    reboot dimension
   EREF     =   0.00    reference energy to select bands
[...]
     -3.85900      3.35900     28.66200         0.525748      0.677114     -2.145772
     -1.92100      3.35900      1.33800        -0.368731      0.735501      2.180022
     -6.74900      5.03900     28.66200         0.188689      0.142237     -2.903856
     -4.81100      5.03900      1.33800         0.692132      0.177985      2.153272
      1.92100      3.35900     28.66200         0.481627      0.607461     -2.156992
      3.85900      3.35900      1.33800        -0.468851      0.555790      2.119165
     -0.96900      5.03900     28.66200        -0.233202      0.519573     -1.396731
      0.96900      5.03900      1.33800         0.242400      0.526801      1.387266
     -3.85900      6.71900     28.66200         0.475113     -0.561721     -2.114525
     -1.92100      6.71900      1.33800         0.220521     -0.531364      1.409360
      4.81100      5.03900     28.66200        -0.687636     -0.135114     -2.160089
      6.74900      5.03900      1.33800        -0.191537     -0.157069      2.883024
      1.92100      6.71900     28.66200        -0.314029     -0.687356     -1.442266
      3.85900      6.71900      1.33800        -0.531371     -0.683141      2.142678
     -0.96900      8.39900     28.66200         0.368154     -0.689499     -2.174889
      0.96900      8.39900      1.33800        -0.526611     -0.685472      2.141002
    total drift:                                0.000016      0.000083      0.000103

  FREE ENERGIE OF THE ION-ELECTRON SYSTEM (eV)
  free  energy   TOTEN  =      -186.89338020 eV

  energy  without entropy=     -186.55201318  energy(sigma->0) =     -186.72269669

 Quasi-Newton relaxation of ions (Broydens 2nd method)
  g(Force)  = 0.468E+01   g(Stress)= 0.350E+00

 Reset! Starting new Quasi-Newton update for ions

[...]

 d Force = 0.2379363E+01[ 0.681E-01, 0.469E+01]  d Energy = 0.1805830E+01 0.574E+00
 d Force = 0.9582174E+03[ 0.941E+03, 0.976E+03]  d Ewald  = 0.2511029E+04-0.155E+04

[...]

 retain information from N=  1 steps
 eigenvalues of (default step * inverse Hessian matrix)
  average eigenvalue of G=   0.2408
 eigenvalue spectrum of G is  0.2408

[...]

 d Force = 0.3548825E-01[ 0.345E-01, 0.364E-01]  d Energy = 0.1092352E+01-0.106E+01
 d Force =-0.2895588E+01[-0.296E+01,-0.283E+01]  d Ewald  =-0.1919098E+04 0.192E+04

[...]

 d Force = 0.4768273E+00[ 0.420E+00, 0.534E+00]  d Energy = 0.1002526E+01-0.526E+00
 d Force = 0.4113033E+03[ 0.421E+03, 0.402E+03]  d Ewald  =-0.1526868E+04 0.194E+04

[...]

 d Force = 0.5065757E+00[ 0.328E+00, 0.685E+00]  d Energy = 0.7709856E+00-0.264E+00
 d Force = 0.5852175E+03[ 0.601E+03, 0.569E+03]  d Ewald  =-0.1858414E+04 0.244E+04

[...]

 d Force = 0.1399145E+00[ 0.136E+00, 0.144E+00]  d Energy = 0.1416295E+00-0.172E-02
 d Force =-0.1463982E+02[-0.145E+02,-0.147E+02]  d Ewald  = 0.5298218E+02-0.676E+02

[...]

 d Force = 0.1492378E-01[ 0.925E-02, 0.206E-01]  d Energy = 0.1496845E-01-0.447E-04
 d Force =-0.2035623E+02[-0.201E+02,-0.206E+02]  d Ewald  = 0.3043904E+01-0.234E+02

[...]

 eigenvalue-minimisations  :  6360
 total energy-change (2. order) : 0.2708929E-04  (-0.8228857E-05)
 number of electron     158.9999979 magnetization
 augmentation part       -4.2186379 magnetization

[...]

 d Force = 0.4014451E-02[ 0.299E-02, 0.504E-02]  d Energy = 0.3698451E-02 0.316E-03
 d Force =-0.2512105E+01[-0.245E+01,-0.257E+01]  d Ewald  =-0.2140533E+01-0.372E+00

[...]

 FEWALD executed in parallel

[...]

 Broyden mixing:
  rms(total) = 0.48613E-02    rms(broyden)= 0.48593E-02
  rms(prec ) = 0.51722E-02
  weight for this iteration     100.00

 eigenvalues of (default mixing * dielectric matrix)
  average eigenvalue GAMMA=   0.7226
  0.7226

[...]

----------------------------------------- Iteration   20(   3)  ---------------------------------------

 eigenvalue-minimisations  :  9120
 total energy-change (2. order) :-0.4254755E-04  (-0.2129152E-04)
 number of electron     158.9999982 magnetization
 augmentation part       -4.2147596 magnetization

 Free energy of the ion-electron system (eV)
  alpha Z        PSCENC =        89.12808208
  Ewald energy   TEWEN  =     44231.71404124
  -Hartree energ DENC   =    -50238.21838006
  -exchange      EXHF   =         0.00000000
  -V(xc)+E(xc)   XCENC  =      -233.61292320
  PAW double counting   =      4101.02891907    -3517.11835966
  entropy T*S    EENTRO =        -0.12705636
  eigenvalues    EBANDS =     -1386.70023435
  atomic energy  EATOM  =      6761.44252427
  Solvation  Ediel_sol  =         0.00000000
  free energy    TOTEN  =      -192.46338696 eV

  energy without entropy =     -192.33633060  energy(sigma->0) =     -192.39985878

 average (electrostatic) potential at core
  the test charge radii are     1.2064  1.2296  1.1823  0.9698
  (the norm of the test charge is              1.0000)
       1 -49.7249       2 -49.8097       3 -49.8610       4 -47.0310       5 -47.1142
       6 -47.0926       7 -49.5495       8 -49.5304       9 -49.6459      10 -95.2515
      11 -95.3097      12 -94.9435      13 -95.0884      14 -95.3063      15 -95.0619
      16 -94.6758      17 -94.6904      18 -94.5774      19 -94.5726      20 -94.6869
      21 -94.5542      22 -95.0940      23 -95.3350      24 -94.9397      25 -94.9868
      26 -95.1908      27 -95.1321

 E-fermi :  -3.2221     XC(G=0):  -2.5584     alpha+bet : -2.3573

[...]

 k-point    34 :       0.5000    0.5000    0.0000
  band No.  band energies     occupation
      1     -17.4743      2.00000
      2     -17.3773      2.00000
      3     -16.7952      2.00000
      4     -16.6806      2.00000
      5     -16.6478      2.00000
      6     -16.4923      2.00000
      7     -16.3216      2.00000
      8     -16.1862      2.00000
      9     -16.1502      2.00000
     10     -16.0546      2.00000
     11     -15.8261      2.00000
     12     -15.8225      2.00000
     13     -15.7783      2.00000
     14     -15.6802      2.00000
     15     -15.5795      2.00000
     16     -15.4626      2.00000
     17     -15.3513      2.00000
     18     -15.3247      2.00000
     19      -9.8176      2.00000
     20      -9.3749      2.00000
     21      -9.3148      2.00000
     22      -8.9667      2.00000
     23      -8.9342      2.00000
     24      -8.8147      2.00000
     25      -8.6690      2.00000
     26      -8.5919      2.00000
     27      -8.4310      2.00000
     28      -8.2978      2.00000
     29      -8.2320      2.00000
     30      -8.1504      2.00000
     31      -8.1017      2.00000
     32      -8.0196      2.00000
     33      -7.9165      2.00000
     34      -7.8678      2.00000
     35      -7.8521      2.00000
     36      -7.7346      2.00000
     37      -7.6144      2.00000
     38      -7.5148      2.00000
     39      -7.3973      2.00000
     40      -7.3454      2.00000
     41      -7.1178      2.00000
     42      -7.0396      2.00000
     43      -6.9861      2.00000
     44      -6.8649      2.00000
     45      -6.8169      2.00000
     46      -6.7054      2.00000
     47      -6.6184      2.00000
     48      -6.6021      2.00000
     49      -6.5394      2.00000
     50      -6.5119      2.00000
     51      -6.4329      2.00000
     52      -6.3885      2.00000
     53      -6.2833      2.00000
     54      -6.2590      2.00000
     55      -6.1793      2.00000
     56      -6.0396      2.00000
     57      -5.9994      2.00000
     58      -5.8417      2.00000
     59      -5.8225      2.00000
     60      -5.8000      2.00000
[...]
    106      -0.4239      0.00000
    107      -0.3343      0.00000
    108      -0.0925      0.00000
    109      -0.0606      0.00000
    110       0.2644      0.00000
    111       0.4424      0.00000
    112       0.5891      0.00000
    113       0.9288      0.00000
    114       0.9515      0.00000
    115       1.0329      0.00000
    116       1.2226      0.00000
    117       1.5775      0.00000
    118       2.2302      0.00000
    119       2.2698      0.00000
    120       2.3942      0.00000

 soft charge-density along one line, spin component           1
         0         1         2         3         4         5         6         7         8         9
 total charge-density along one line

------------------------ aborting loop because EDIFF is reached ----------------------------------------

  FORCE on cell =-STRESS in cart. coord.  units (eV):
  Direction    XX          YY          ZZ          XY          YZ          ZX
  Alpha Z    89.12808    89.12808    89.12808
  Ewald   49188.59297 49141.90583-54098.80157   -37.61988    18.63742     8.56794
  Hartree 49893.83083 49864.52139-49520.82339   -23.54729    11.42619     6.29208
  E(xc)    -609.60640  -610.81971  -617.65418    -1.01157    -0.84848    -0.39336
  Local  ************************101057.34700    52.54748   -38.69772   -19.94906
  n-local  1214.01714  1215.80323  1248.39536     1.32282    -2.38043    -1.98736
  augment  -212.96756  -213.09007  -214.88665     0.66189     0.84382     0.09673
  Kinetic  2005.97032  2016.50538  2055.16521     7.65774    10.89014     7.28052
  Fock        0.00000     0.00000     0.00000     0.00000     0.00000     0.00000
  Total      -0.08578    -0.03603    -2.13014     0.01118    -0.12906    -0.09251
  in kB      -0.05721    -0.02403    -1.42084     0.00746    -0.08609    -0.06170

 VOLUME and BASIS-vectors are now :
  energy-cutoff  :      280.00
  volume of cell :     2402.00
      direct lattice vectors                 reciprocal lattice vectors
     8.321480902  4.825811772  0.000000000     0.059992144  0.103770422  0.000000000
    -8.308545920  4.803367603  0.000000000    -0.060272462  0.103931974  0.000000000
     0.000000000  0.000000000 30.000000000     0.000000000  0.000000000  0.033333333

  length of vectors
     9.619537601  9.597097251 30.000000000     0.119863913  0.120144184  0.033333333

 FORCES acting on ions
    electron-ion (+dipol)            ewald-force                    non-local-force                 convergence-correction
   0.114E+02 0.238E+02 0.106E+02   -.118E+02 -.254E+02 -.104E+02   0.449E+00 0.153E+01 -.195E+00   -.587E-01 -.185E-01 -.141E-01
   -.112E+02 -.197E+02 -.205E+02   0.119E+02 0.209E+02 0.203E+02   -.736E+00 -.125E+01 0.221E+00   0.302E-01 0.265E-01 0.402E-01
   0.109E+02 0.190E+02 0.200E+02   -.118E+02 -.201E+02 -.199E+02   0.948E+00 0.107E+01 -.169E+00   -.403E-01 0.311E-01 -.296E-01
   0.242E+00 0.872E+01 0.215E+01   -.199E+00 -.840E+01 -.220E+01   -.366E-01 -.228E+00 0.625E-01   -.357E-02 -.710E-01 -.660E-02
   -.144E+02 0.144E+02 0.181E+01   0.144E+02 -.143E+02 -.178E+01   -.310E-02 -.593E-01 -.277E-01   -.757E-02 0.426E-02 0.196E-02
   0.203E+02 -.109E+02 0.102E+01   -.202E+02 0.107E+02 -.108E+01   -.115E+00 0.419E-01 0.498E-01   0.131E-01 0.637E-01 0.123E-01
   -.235E+02 -.287E+02 -.155E+02   0.241E+02 0.293E+02 0.153E+02   -.683E+00 -.548E+00 0.204E+00   0.459E-01 -.280E-01 0.139E-02
   -.133E+02 -.337E+02 -.124E+02   0.136E+02 0.346E+02 0.121E+02   -.213E+00 -.101E+01 0.264E+00   -.492E-01 0.663E-01 0.669E-02
   0.201E+02 0.281E+02 0.112E+02   -.208E+02 -.290E+02 -.111E+02   0.647E+00 0.902E+00 -.151E+00   0.740E-01 -.892E-01 -.371E-02
   -.227E+01 -.177E+02 0.629E+03   0.230E+01 0.186E+02 -.633E+03   -.180E-01 -.900E+00 0.345E+01   -.193E-02 0.972E-03 -.152E-01
   -.130E+02 -.217E+02 -.626E+03   0.135E+02 0.223E+02 0.630E+03   -.487E+00 -.609E+00 -.374E+01   -.406E-02 -.811E-02 0.171E-01
   -.354E+01 -.572E+01 0.568E+03   0.443E+01 0.742E+01 -.571E+03   -.931E+00 -.178E+01 0.309E+01   0.497E-01 0.922E-01 0.653E-01
   -.259E+01 -.248E+02 -.602E+03   0.270E+01 0.256E+02 0.606E+03   -.486E-01 -.886E+00 -.374E+01   -.555E-01 0.100E+00 -.687E-01
   -.129E+02 -.870E+01 0.627E+03   0.139E+02 0.926E+01 -.630E+03   -.961E+00 -.530E+00 0.340E+01   -.630E-02 -.206E-01 -.113E-01
   -.195E+02 -.147E+02 -.606E+03   0.200E+02 0.151E+02 0.610E+03   -.591E+00 -.377E+00 -.389E+01   0.110E+00 -.140E-01 -.634E-01
   -.104E+02 -.178E+02 0.506E+03   0.105E+02 0.180E+02 -.511E+03   -.104E+00 -.252E+00 0.502E+01   -.264E-01 -.122E-01 -.230E-01
   0.550E+01 0.250E+01 -.491E+03   -.532E+01 -.187E+01 0.495E+03   -.209E+00 -.548E+00 -.497E+01   0.285E-01 -.632E-01 0.353E-01
   -.519E+00 -.115E+02 0.484E+03   0.483E+00 0.115E+02 -.489E+03   0.481E-01 -.127E+00 0.478E+01   -.329E-01 0.106E+00 0.109E+00
   0.192E+00 0.400E+01 -.484E+03   0.251E+00 -.328E+01 0.489E+03   -.301E+00 -.808E+00 -.474E+01   -.124E+00 0.942E-01 -.352E-01
   -.812E+01 -.455E+01 0.488E+03   0.796E+01 0.407E+01 -.494E+03   0.822E-01 0.542E+00 0.505E+01   0.758E-01 -.786E-01 0.505E-01
   0.565E+01 0.140E+02 -.494E+03   -.556E+01 -.140E+02 0.499E+03   -.156E+00 0.811E-01 -.479E+01   0.625E-01 -.687E-01 -.117E+00
   0.196E+02 0.156E+02 0.603E+03   -.203E+02 -.160E+02 -.606E+03   0.673E+00 0.406E+00 0.376E+01   0.355E-01 -.931E-02 -.382E-01
   0.131E+02 0.152E+02 -.624E+03   -.141E+02 -.158E+02 0.628E+03   0.981E+00 0.629E+00 -.339E+01   0.195E-01 -.206E-01 0.835E-02
   0.556E+01 0.222E+02 0.589E+03   -.577E+01 -.231E+02 -.592E+03   0.355E+00 0.892E+00 0.339E+01   -.143E+00 0.351E-01 0.413E-01
   0.557E+01 0.656E+01 -.564E+03   -.674E+01 -.852E+01 0.567E+03   0.114E+01 0.188E+01 -.300E+01   0.181E-01 0.688E-01 0.430E-01
   0.101E+02 0.251E+02 0.603E+03   -.106E+02 -.259E+02 -.606E+03   0.414E+00 0.995E+00 0.334E+01   0.513E-01 -.106E+00 0.839E-01
   0.658E+01 0.202E+02 -.604E+03   -.670E+01 -.216E+02 0.607E+03   0.190E+00 0.152E+01 -.295E+01   -.661E-01 -.832E-01 -.687E-01
   -.327E+00 -.572E+00 -.375E+00   0.000E+00 -.103E-12 0.341E-12   0.334E+00 0.571E+00 0.347E+00   -.545E-02 -.286E-02 0.210E-01

 POSITION                                       TOTAL-FORCE (eV/Angst)
      0.14201      6.65553     -0.04511        -0.006310     -0.012977     -0.013474
     -2.92999      4.53340      0.07488        -0.007024     -0.006725      0.043483
      2.93792      5.10832     -0.07286         0.007754      0.015511     -0.043147
      0.00530      0.04406     -0.00765         0.002488      0.015199      0.001764
     -5.68072      3.32171     -0.00386         0.002797     -0.001549      0.001916
      5.71812      6.32929     -0.00283        -0.000728     -0.014718      0.004880
      2.59011      1.35936      0.05250        -0.005697      0.008635      0.007093
     -0.12001      2.94119      0.04414         0.005232      0.004838      0.007914
      5.71879      3.46410     -0.04169         0.003726     -0.007195     -0.000766
     -0.91486      1.56567     28.30172         0.002294      0.015510      0.013533
      0.91316      1.58412      1.71800        -0.004743      0.000202      0.004746
     -3.70748      3.17546     28.48655         0.012674      0.008611      0.013176
     -1.86509      3.19576      1.64994         0.005934     -0.019435      0.017386
     -6.49841      4.79654     28.30841         0.010965      0.009469      0.014329
     -4.61871      4.78399      1.66301        -0.026580      0.004054      0.018018
      1.87099      3.23954     28.65656        -0.002062      0.006113     -0.002405
      3.67601      3.24468      1.29200        -0.000159      0.018947     -0.019994
     -0.94490      4.82085     28.73165        -0.020636     -0.012531      0.006236
      0.95437      4.83054      1.27031         0.018738      0.005749     -0.011813
     -3.67247      6.38568     28.71673        -0.000103     -0.013643      0.012694
     -1.82860      6.38580      1.30840        -0.002216     -0.000082      0.007349
      4.62913      4.85126     28.34807         0.014245     -0.005415     -0.014651
      6.51722      4.83437      1.68417        -0.003734     -0.014123     -0.012651
      1.83740      6.43600     28.39207        -0.000192      0.012725     -0.019295
      3.72315      6.46183      1.50247        -0.009161     -0.020664     -0.012184
     -0.87961      7.99947     28.35482         0.006884      0.012569     -0.008014
      0.90386      8.01025      1.61760        -0.004387     -0.009075     -0.016123
    total drift:                                0.000721     -0.004225     -0.007584

  FREE ENERGIE OF THE ION-ELECTRON SYSTEM (eV)
  free  energy   TOTEN  =      -192.46338696 eV

  energy  without entropy=     -192.33633060  energy(sigma->0) =     -192.39985878

 d Force = 0.7608467E-03[ 0.667E-03, 0.855E-03]  d Energy = 0.8064257E-03-0.456E-04
 d Force = 0.1623289E+01[ 0.163E+01, 0.162E+01]  d Ewald  = 0.1608835E+02-0.145E+02

 Quasi-Newton relaxation of ions (Broydens 2nd method)
  g(Force)  = 0.648E-03   g(Stress)= 0.159E-04

 retain information from N=  3 steps
 eigenvalues of (default step * inverse Hessian matrix)
  average eigenvalue of G=   3.0999
 eigenvalue spectrum of G is  5.8538  3.2179  0.2280

 reached required accuracy - stopping structural energy minimisation